n = 15;
m = 46;

max_len = 7;
word_lens = [ 4, 4, 4, 4, 4, 4, 4, 4, 4, 5, 5, 5, 5, 5, 5, 5, 5, 5, 5, 5, 5, 5, 5, 5, 5, 6, 6, 6, 6, 6, 6, 6, 6, 6, 6, 6, 6, 6, 6, 7, 7, 7, 7, 7, 7, 7 ];
words = [| M, E, S, S, E, E, E | R, U, I, N, E, E, E | H, E, L, L, E, E, E | F, E, A, R, E, E, E | U, G, L, Y, E, E, E | T, A, L, E, E, E, E | G, R, I, M, E, E, E | S, O, R, T, E, E, E | G, O, E, S, E, E, E | S, L, E, E, P, E, E | F, E, V, E, R, E, E | C, H, A, O, S, E, E | H, A, U, N, T, E, E | D, E, M, O, N, E, E | M, I, D, S, T, E, E | W, O, R, S, T, E, E | A, W, F, U, L, E, E | S, C, A, R, Y, E, E | P, E, R, I, L, E, E | V, E, R, G, E, E, E | F, R, E, A, K, E, E | T, H, I, N, G, E, E | H, A, V, O, C, E, E | B, R, A, I, N, E, E | S, T, O, R, Y, E, E | M, A, Y, H, E, M, E | M, I, S, E, R, Y, E | F, I, A, S, C, O, E | S, W, E, V, E, N, E | T, R, A, U, M, A, E | T, R, A, G, I, C, E | S, T, R, E, S, S, E | T, H, R, O, E, S, E | M, O, M, E, N, T, E | S, N, O, R, E, R, E | D, A, N, G, E, R, E | L, E, S, S, O, N, E | H, A, P, P, E, N, E | C, R, I, S, E, S, E | A, N, X, I, E, T, Y | M, E, D, I, C, A, L | T, R, A, G, E, D, Y | M, A, D, N, E, S, S | D, I, L, E, M, M, A | M, O, N, S, T, E, R | D, E, B, A, C, L, E |];

pos_var_strat = smallest;
pos_val_strat = indomain_mi;
